/*********************************************
 * OPL 12.6.0.0 Data
 * Author: Adrian Rodriguez Bazaga, Pau Rodriguez Esmerats
 * Creation Date: 06/12/2017 at 23:03:06
 *********************************************/

nNurses=260;
maxConsec=2;
maxPresence=7;
maxHours=5;
minHours=1;
hours=24;
demand= [41 35 63 58 35 63 58 36 40 18 6 5 9 8 11 7 8 7 5 3 44 70 28 68  ];
